
Gurobi 10.0.3 (win64, Python) logging started Sat Nov  4 07:41:20 2023

Set parameter Username
Set parameter LogFile to value "gurobi.log"
Academic license - for non-commercial use only - expires 2024-11-02
Error reading LP format file formula.lp at line 6
Incomplete constraint
Neighboring tokens: " Bounds 0<=x3 End "


Gurobi 10.0.3 (win64, Python) logging started Sat Nov  4 07:42:17 2023

Set parameter Username
Set parameter LogFile to value "gurobi.log"
Academic license - for non-commercial use only - expires 2024-11-02
Error reading LP format file formula.lp at line 7
Incomplete constraint
Neighboring tokens: " Bounds 0<=x3 End "

Error reading LP format file formula.lp at line 7
Incomplete constraint
Neighboring tokens: " Bounds 0 <= x3 End "

Read LP format model from file formula.lp
Reading time = 0.01 seconds
: 1 rows, 3 columns, 3 nonzeros
Gurobi Optimizer version 10.0.3 build v10.0.3rc0 (win64)

CPU model: 12th Gen Intel(R) Core(TM) i5-12500, instruction set [SSE2|AVX|AVX2]
Thread count: 6 physical cores, 12 logical processors, using up to 12 threads

Optimize a model with 1 rows, 3 columns and 3 nonzeros
Model fingerprint: 0xfe7993b4
Coefficient statistics:
  Matrix range     [1e+00, 1e+00]
  Objective range  [1e+00, 1e+00]
  Bounds range     [0e+00, 0e+00]
  RHS range        [3e+01, 3e+01]
Presolve removed 1 rows and 3 columns
Presolve time: 0.01s
Presolve: All rows and columns removed
Iteration    Objective       Primal Inf.    Dual Inf.      Time
       0    0.0000000e+00   0.000000e+00   0.000000e+00      0s

Solved in 0 iterations and 0.02 seconds (0.00 work units)
Optimal objective  0.000000000e+00

    Variable            X 
-------------------------
          x1           32 

Gurobi 10.0.3 (win64, Python) logging started Sat Nov  4 07:57:14 2023

Set parameter Username
Set parameter LogFile to value "gurobi.log"
Academic license - for non-commercial use only - expires 2024-11-02

Gurobi 10.0.3 (win64, Python) logging started Sat Nov  4 08:00:02 2023

Set parameter Username
Set parameter LogFile to value "gurobi.log"
Academic license - for non-commercial use only - expires 2024-11-02

Gurobi 10.0.3 (win64, Python) logging started Sat Nov  4 08:08:50 2023

Set parameter Username
Set parameter LogFile to value "gurobi.log"
Academic license - for non-commercial use only - expires 2024-11-02

Gurobi 10.0.3 (win64, Python) logging started Sat Nov  4 08:09:14 2023

Set parameter Username
Set parameter LogFile to value "gurobi.log"
Academic license - for non-commercial use only - expires 2024-11-02
